LibMLKEM/why3-cvc5/mlkem.adb_593_14_division_check_1.smt2
;; produced by cvc5.drv ;;
(set-logic ALL)
(set-info :smt-lib-version 2.6)
;;; generated by SMT-LIB2 driver
;;; SMT-LIB2 driver: bit-vectors, common part
;;; SMT-LIB2: integer arithmetic
;; "pow2"
(declare-fun pow2 (Int) Int)

(declare-const two_power_size_minus_one Int)

;; "two_power_size_minus_one_val"
(assert (= two_power_size_minus_one (pow2 (- 8 1))))

;; "min"
(define-fun min ((x Int) (y Int)) Int
  (ite (<= x y) x y))

;; "max"
(define-fun max ((x Int) (y Int)) Int
  (ite (<= x y) y x))

;; "Min_r"
(assert (forall ((x Int) (y Int)) (=> (<= y x) (= (min x y) y))))

;; "Max_l"
(assert (forall ((x Int) (y Int)) (=> (<= y x) (= (max x y) x))))

;; "Min_comm"
(assert (forall ((x Int) (y Int)) (= (min x y) (min y x))))

;; "Max_comm"
(assert (forall ((x Int) (y Int)) (= (max x y) (max y x))))

;; "Min_assoc"
(assert
  (forall ((x Int) (y Int) (z Int)) (= (min (min x y) z) (min x (min y z)))))

;; "Max_assoc"
(assert
  (forall ((x Int) (y Int) (z Int)) (= (max (max x y) z) (max x (max y z)))))

;; "lsr"
(declare-fun lsr ((_ BitVec 64)
  Int) (_ BitVec 64))

(declare-const two_power_size_minus_one1 Int)

;; "two_power_size_minus_one_val"
(assert (= two_power_size_minus_one1 (pow2 (- 64 1))))

;; "lsr_bv_is_lsr"
(assert
  (forall ((x (_ BitVec 64)) (n (_ BitVec 64)))
    (= (bvlshr x n) (lsr x (bv2nat n)))))

(declare-const two_power_size_minus_one2 Int)

;; "two_power_size_minus_one_val"
(assert (= two_power_size_minus_one2 (pow2 (- 16 1))))

(declare-const x (_ BitVec 16))

;; "in_range"
(define-fun in_range ((x1 (_ BitVec 16))) Bool
  (and (bvule #x0000 x1) (bvule x1 #x0D00)))

;; Goal "def'vc"
;; File "mlkem.adb", line 572, characters 0-0
(assert
  (not
  (=>
    (in_range x)
    (forall ((t (_ BitVec 64)))
      (=>
        (= t (bvadd (bvmul (bvmul ((_ zero_extend 48) x) #x0000000000000002) #x0000000000000010) #x0000000000000D01))
        (forall ((t1 (_ BitVec 64)))
          (=>
            (= t1 (bvudiv t #x0000000000000002))
            (forall ((t2 (_ BitVec 64)))
              (=>
                (= t2 (bvmul t1 #x000000009D7DBB41))
                (forall ((t3 (_ BitVec 64)))
                  (=>
                    (= t3 (bvlshr t2 ((_ int2bv 64) 43)))
                    (not (= #x0000000000000010 #x0000000000000000)))))))))))))

(check-sat)
